NAME : rnd45_50.tsp.tsp.opt.tour
TYPE : TOUR
DIMENSION : 50
TOUR_SECTION
1
2
5
9
11
30
20
21
38
39
25
37
46
35
17
28
40
4
44
47
18
32
15
34
42
48
7
12
33
22
41
19
10
23
13
6
36
3
14
49
45
31
29
16
24
26
43
27
50
8
-1